
Gurobi 11.0.1 (win64) logging started Wed Nov 27 16:18:08 2024

Set parameter LogFile to value "F_ReLU1_Adv3.log"
Gurobi Optimizer version 11.0.1 build v11.0.1rc0 (win64 - Windows 11.0 (22631.2))

CPU model: AMD Ryzen 7 4800H with Radeon Graphics, instruction set [SSE2|AVX|AVX2]
Thread count: 8 physical cores, 16 logical processors, using up to 16 threads

Optimize a model with 36 rows, 30 columns and 68 nonzeros
Model fingerprint: 0x2eb463e2
Model has 8 quadratic objective terms
Model has 4 quadratic constraints
Coefficient statistics:
  Matrix range     [1e-01, 2e+03]
  QMatrix range    [6e-03, 8e-01]
  QLMatrix range   [1e-01, 7e-01]
  Objective range  [1e-01, 5e-01]
  QObjective range [3e-01, 1e+00]
  Bounds range     [1e+00, 1e+00]
  RHS range        [1e-01, 2e+03]
Presolve removed 24 rows and 13 columns

Continuous model is non-convex -- solving as a MIP

Presolve removed 28 rows and 19 columns
Presolve time: 0.00s
Presolved: 35 rows, 21 columns, 90 nonzeros
Presolved model has 8 bilinear constraint(s)
Warning: Model contains variables with very large bounds participating
         in product terms.
         Presolve was not able to compute smaller bounds for these variables.
         Consider bounding these variables or reformulating the model.

Variable types: 21 continuous, 0 integer (0 binary)
Found heuristic solution: objective -824.8898839

Root relaxation: objective -9.855789e+02, 20 iterations, 0.00 seconds (0.00 work units)

    Nodes    |    Current Node    |     Objective Bounds      |     Work
 Expl Unexpl |  Obj  Depth IntInf | Incumbent    BestBd   Gap | It/Node Time

     0     0 -985.57892    0    8 -824.88988 -985.57892  19.5%     -    0s
     0     2 -985.57892    0    8 -824.88988 -985.57892  19.5%     -    0s
*    3     0               2    -824.8900000 -892.94864  8.25%   7.7    0s

Explored 5 nodes (48 simplex iterations) in 0.03 seconds (0.00 work units)
Thread count was 16 (of 16 available processors)

Solution count 2: -824.89 -824.89 
No other solutions better than -824.89

Optimal solution found (tolerance 1.00e-04)
Warning: max constraint violation (5.3000e+00) exceeds tolerance
Warning: max bound violation (5.3000e+00) exceeds tolerance
Best objective -8.248900000000e+02, best bound -8.248900000000e+02, gap 0.0000%

Gurobi 11.0.1 (win64) logging started Thu Nov 28 14:52:05 2024

Set parameter LogFile to value "F_ReLU1_Adv3.log"
Gurobi Optimizer version 11.0.1 build v11.0.1rc0 (win64 - Windows 11.0 (22631.2))

CPU model: AMD Ryzen 7 4800H with Radeon Graphics, instruction set [SSE2|AVX|AVX2]
Thread count: 8 physical cores, 16 logical processors, using up to 16 threads

Optimize a model with 36 rows, 30 columns and 68 nonzeros
Model fingerprint: 0x071d69b0
Model has 8 quadratic objective terms
Model has 4 quadratic constraints
Coefficient statistics:
  Matrix range     [1e-01, 2e+03]
  QMatrix range    [6e-03, 8e-01]
  QLMatrix range   [1e-01, 7e-01]
  Objective range  [1e-01, 5e-01]
  QObjective range [3e-01, 1e+00]
  Bounds range     [1e+00, 2e+03]
  RHS range        [1e-01, 2e+03]
Presolve removed 24 rows and 13 columns

Continuous model is non-convex -- solving as a MIP

Presolve removed 28 rows and 19 columns
Presolve time: 0.02s
Presolved: 35 rows, 21 columns, 90 nonzeros
Presolved model has 8 bilinear constraint(s)
Warning: Model contains variables with very large bounds participating
         in product terms.
         Presolve was not able to compute smaller bounds for these variables.
         Consider bounding these variables or reformulating the model.

Variable types: 21 continuous, 0 integer (0 binary)
Found heuristic solution: objective -824.8898840

Root relaxation: objective -9.855789e+02, 19 iterations, 0.01 seconds (0.00 work units)

    Nodes    |    Current Node    |     Objective Bounds      |     Work
 Expl Unexpl |  Obj  Depth IntInf | Incumbent    BestBd   Gap | It/Node Time

     0     0 -985.57892    0    8 -824.88988 -985.57892  19.5%     -    0s
     0     2 -985.57892    0    8 -824.88988 -985.57892  19.5%     -    0s
*    3     0               2    -824.8900000 -892.94864  8.25%   7.0    0s

Explored 5 nodes (45 simplex iterations) in 0.17 seconds (0.00 work units)
Thread count was 16 (of 16 available processors)

Solution count 2: -824.89 -824.89 
No other solutions better than -824.89

Optimal solution found (tolerance 1.00e-04)
Warning: max constraint violation (1.2330e+01) exceeds tolerance
Warning: max bound violation (1.2330e+01) exceeds tolerance
         (model may be infeasible or unbounded - try turning presolve off)
Best objective -8.248900000000e+02, best bound -8.248900000000e+02, gap 0.0000%

Gurobi 11.0.1 (win64) logging started Thu Nov 28 14:52:41 2024

Set parameter LogFile to value "F_ReLU1_Adv3.log"
Gurobi Optimizer version 11.0.1 build v11.0.1rc0 (win64 - Windows 11.0 (22631.2))

CPU model: AMD Ryzen 7 4800H with Radeon Graphics, instruction set [SSE2|AVX|AVX2]
Thread count: 8 physical cores, 16 logical processors, using up to 16 threads

Optimize a model with 36 rows, 30 columns and 68 nonzeros
Model fingerprint: 0x071d69b0
Model has 8 quadratic objective terms
Model has 4 quadratic constraints
Coefficient statistics:
  Matrix range     [1e-01, 2e+03]
  QMatrix range    [6e-03, 8e-01]
  QLMatrix range   [1e-01, 7e-01]
  Objective range  [1e-01, 5e-01]
  QObjective range [3e-01, 1e+00]
  Bounds range     [1e+00, 2e+03]
  RHS range        [1e-01, 2e+03]
Presolve removed 24 rows and 13 columns

Continuous model is non-convex -- solving as a MIP

Presolve removed 28 rows and 19 columns
Presolve time: 0.00s
Presolved: 35 rows, 21 columns, 90 nonzeros
Presolved model has 8 bilinear constraint(s)
Warning: Model contains variables with very large bounds participating
         in product terms.
         Presolve was not able to compute smaller bounds for these variables.
         Consider bounding these variables or reformulating the model.

Variable types: 21 continuous, 0 integer (0 binary)
Found heuristic solution: objective -824.8898840

Root relaxation: objective -9.855789e+02, 19 iterations, 0.00 seconds (0.00 work units)

    Nodes    |    Current Node    |     Objective Bounds      |     Work
 Expl Unexpl |  Obj  Depth IntInf | Incumbent    BestBd   Gap | It/Node Time

     0     0 -985.57892    0    8 -824.88988 -985.57892  19.5%     -    0s
     0     2 -985.57892    0    8 -824.88988 -985.57892  19.5%     -    0s
*    3     0               2    -824.8900000 -892.94864  8.25%   7.0    0s

Explored 5 nodes (45 simplex iterations) in 0.04 seconds (0.00 work units)
Thread count was 16 (of 16 available processors)

Solution count 2: -824.89 -824.89 
No other solutions better than -824.89

Optimal solution found (tolerance 1.00e-04)
Warning: max constraint violation (1.2330e+01) exceeds tolerance
Warning: max bound violation (1.2330e+01) exceeds tolerance
         (model may be infeasible or unbounded - try turning presolve off)
Best objective -8.248900000000e+02, best bound -8.248900000000e+02, gap 0.0000%

Gurobi 11.0.1 (win64) logging started Thu Nov 28 14:53:20 2024

Set parameter LogFile to value "F_ReLU1_Adv3.log"
Gurobi Optimizer version 11.0.1 build v11.0.1rc0 (win64 - Windows 11.0 (22631.2))

CPU model: AMD Ryzen 7 4800H with Radeon Graphics, instruction set [SSE2|AVX|AVX2]
Thread count: 8 physical cores, 16 logical processors, using up to 16 threads

Optimize a model with 36 rows, 30 columns and 68 nonzeros
Model fingerprint: 0x071d69b0
Model has 8 quadratic objective terms
Model has 4 quadratic constraints
Coefficient statistics:
  Matrix range     [1e-01, 2e+03]
  QMatrix range    [6e-03, 8e-01]
  QLMatrix range   [1e-01, 7e-01]
  Objective range  [1e-01, 5e-01]
  QObjective range [3e-01, 1e+00]
  Bounds range     [1e+00, 2e+03]
  RHS range        [1e-01, 2e+03]
Presolve removed 24 rows and 13 columns

Continuous model is non-convex -- solving as a MIP

Presolve removed 28 rows and 19 columns
Presolve time: 0.00s
Presolved: 35 rows, 21 columns, 90 nonzeros
Presolved model has 8 bilinear constraint(s)
Warning: Model contains variables with very large bounds participating
         in product terms.
         Presolve was not able to compute smaller bounds for these variables.
         Consider bounding these variables or reformulating the model.

Variable types: 21 continuous, 0 integer (0 binary)
Found heuristic solution: objective -824.8898840

Root relaxation: objective -9.855789e+02, 19 iterations, 0.00 seconds (0.00 work units)

    Nodes    |    Current Node    |     Objective Bounds      |     Work
 Expl Unexpl |  Obj  Depth IntInf | Incumbent    BestBd   Gap | It/Node Time

     0     0 -985.57892    0    8 -824.88988 -985.57892  19.5%     -    0s
     0     2 -985.57892    0    8 -824.88988 -985.57892  19.5%     -    0s
*    3     0               2    -824.8900000 -892.94864  8.25%   7.0    0s

Explored 5 nodes (45 simplex iterations) in 0.04 seconds (0.00 work units)
Thread count was 16 (of 16 available processors)

Solution count 2: -824.89 -824.89 
No other solutions better than -824.89

Optimal solution found (tolerance 1.00e-04)
Warning: max constraint violation (1.2330e+01) exceeds tolerance
Warning: max bound violation (1.2330e+01) exceeds tolerance
         (model may be infeasible or unbounded - try turning presolve off)
Best objective -8.248900000000e+02, best bound -8.248900000000e+02, gap 0.0000%

Gurobi 11.0.1 (win64) logging started Wed Dec  4 09:26:34 2024

Set parameter LogFile to value "F_ReLU1_Adv3.log"
Gurobi Optimizer version 11.0.1 build v11.0.1rc0 (win64 - Windows 11.0 (22631.2))

CPU model: AMD Ryzen 7 4800H with Radeon Graphics, instruction set [SSE2|AVX|AVX2]
Thread count: 8 physical cores, 16 logical processors, using up to 16 threads

Optimize a model with 36 rows, 33 columns and 68 nonzeros
Model fingerprint: 0x98ef50c8
Model has 8 quadratic objective terms
Model has 4 quadratic constraints
Coefficient statistics:
  Matrix range     [1e-01, 2e+03]
  QMatrix range    [6e-03, 8e-01]
  QLMatrix range   [1e-01, 7e-01]
  Objective range  [1e-01, 5e-01]
  QObjective range [3e-01, 1e+00]
  Bounds range     [1e+00, 2e+03]
  RHS range        [1e-01, 2e+03]
Presolve removed 24 rows and 16 columns

Continuous model is non-convex -- solving as a MIP

Presolve removed 28 rows and 22 columns
Presolve time: 0.00s
Presolved: 35 rows, 21 columns, 90 nonzeros
Presolved model has 8 bilinear constraint(s)
Warning: Model contains variables with very large bounds participating
         in product terms.
         Presolve was not able to compute smaller bounds for these variables.
         Consider bounding these variables or reformulating the model.

Variable types: 21 continuous, 0 integer (0 binary)
Found heuristic solution: objective -824.8898840

Root relaxation: objective -9.855789e+02, 19 iterations, 0.01 seconds (0.00 work units)

    Nodes    |    Current Node    |     Objective Bounds      |     Work
 Expl Unexpl |  Obj  Depth IntInf | Incumbent    BestBd   Gap | It/Node Time

     0     0 -985.57892    0    8 -824.88988 -985.57892  19.5%     -    0s
     0     2 -985.57892    0    8 -824.88988 -985.57892  19.5%     -    0s
*    3     0               2    -824.8900000 -892.94864  8.25%   7.0    0s

Explored 5 nodes (45 simplex iterations) in 0.02 seconds (0.00 work units)
Thread count was 16 (of 16 available processors)

Solution count 2: -824.89 -824.89 
No other solutions better than -824.89

Optimal solution found (tolerance 1.00e-04)
Warning: max constraint violation (1.2330e+01) exceeds tolerance
Warning: max bound violation (1.2330e+01) exceeds tolerance
         (model may be infeasible or unbounded - try turning presolve off)
Best objective -8.248900000000e+02, best bound -8.248900000000e+02, gap 0.0000%

Gurobi 11.0.1 (win64) logging started Wed Dec  4 09:57:28 2024

Set parameter LogFile to value "F_ReLU1_Adv3.log"
Gurobi Optimizer version 11.0.1 build v11.0.1rc0 (win64 - Windows 11.0 (22631.2))

CPU model: AMD Ryzen 7 4800H with Radeon Graphics, instruction set [SSE2|AVX|AVX2]
Thread count: 8 physical cores, 16 logical processors, using up to 16 threads

Optimize a model with 54 rows, 40 columns and 119 nonzeros
Model fingerprint: 0xcf1f02d6
Model has 5 quadratic objective terms
Model has 1 quadratic constraint
Variable types: 26 continuous, 14 integer (14 binary)
Coefficient statistics:
  Matrix range     [1e-02, 2e+03]
  QMatrix range    [1e+00, 2e+00]
  QLMatrix range   [6e-01, 6e-01]
  Objective range  [4e-03, 1e+00]
  QObjective range [1e+00, 3e+00]
  Bounds range     [1e+00, 2e+03]
  RHS range        [6e-03, 2e+03]
Presolve removed 54 rows and 40 columns
Presolve time: 0.00s
Presolve: All rows and columns removed

Explored 0 nodes (0 simplex iterations) in 0.01 seconds (0.00 work units)
Thread count was 1 (of 16 available processors)

Solution count 1: 0.423496 

Optimal solution found (tolerance 1.00e-04)
Best objective 4.234960073289e-01, best bound 4.234960073289e-01, gap 0.0000%

Gurobi 11.0.1 (win64) logging started Wed Dec  4 09:57:29 2024

Set parameter LogFile to value "F_ReLU1_Adv3.log"
Gurobi Optimizer version 11.0.1 build v11.0.1rc0 (win64 - Windows 11.0 (22631.2))

CPU model: AMD Ryzen 7 4800H with Radeon Graphics, instruction set [SSE2|AVX|AVX2]
Thread count: 8 physical cores, 16 logical processors, using up to 16 threads

Optimize a model with 54 rows, 40 columns and 119 nonzeros
Model fingerprint: 0xcf1f02d6
Model has 5 quadratic objective terms
Model has 1 quadratic constraint
Variable types: 26 continuous, 14 integer (14 binary)
Coefficient statistics:
  Matrix range     [1e-02, 2e+03]
  QMatrix range    [1e+00, 2e+00]
  QLMatrix range   [6e-01, 6e-01]
  Objective range  [4e-03, 1e+00]
  QObjective range [1e+00, 3e+00]
  Bounds range     [1e+00, 2e+03]
  RHS range        [6e-03, 2e+03]
Presolve removed 54 rows and 40 columns
Presolve time: 0.00s
Presolve: All rows and columns removed

Explored 0 nodes (0 simplex iterations) in 0.01 seconds (0.00 work units)
Thread count was 1 (of 16 available processors)

Solution count 1: 0.423496 

Optimal solution found (tolerance 1.00e-04)
Best objective 4.234960073289e-01, best bound 4.234960073289e-01, gap 0.0000%

Gurobi 11.0.1 (win64) logging started Wed Dec  4 15:28:20 2024

Set parameter LogFile to value "F_ReLU1_Adv3.log"
Gurobi Optimizer version 11.0.1 build v11.0.1rc0 (win64 - Windows 11.0 (22631.2))

CPU model: AMD Ryzen 7 4800H with Radeon Graphics, instruction set [SSE2|AVX|AVX2]
Thread count: 8 physical cores, 16 logical processors, using up to 16 threads

Optimize a model with 1768 rows, 944 columns and 17968 nonzeros
Model fingerprint: 0x0a9ed2ed
Model has 180 quadratic objective terms
Model has 81 quadratic constraints
Variable types: 884 continuous, 60 integer (60 binary)
Coefficient statistics:
  Matrix range     [5e-06, 2e+03]
  QMatrix range    [6e-05, 2e+00]
  QLMatrix range   [5e-03, 1e+00]
  Objective range  [2e-02, 9e-01]
  QObjective range [8e-03, 3e+00]
  Bounds range     [1e-02, 2e+03]
  RHS range        [5e-03, 2e+03]
Presolve removed 1567 rows and 31 columns
Presolve time: 0.03s
Presolved: 381 rows, 1093 columns, 18561 nonzeros
Variable types: 1044 continuous, 49 integer (49 binary)
Found heuristic solution: objective -3.0373500
Found heuristic solution: objective -9.9849172

Root relaxation: objective -1.077740e+03, 279 iterations, 0.01 seconds (0.02 work units)

    Nodes    |    Current Node    |     Objective Bounds      |     Work
 Expl Unexpl |  Obj  Depth IntInf | Incumbent    BestBd   Gap | It/Node Time

     0     0 -1077.7398    0   35   -9.98492 -1077.7398      -     -    0s
     0     2 -1075.7038    0   35   -9.98492 -1075.7038      -     -    0s
H  158   160                     -11.1579990 -826.23469  7305%  90.8    1s
*  296   320              29     -72.1624388 -826.23469  1045%  73.0    1s
H  453   420                     -72.1695310 -813.71719  1028%  87.0    2s
*  699   512              30     -80.4846594 -813.71719   911%  72.0    2s
  1636   863 -181.14577   10   26  -80.48466 -603.23849   650%  71.1    5s
* 1963   946              32     -83.5412437 -548.59219   557%  70.4    6s
H 2992  1225                     -84.8924680 -493.55661   481%  72.1    8s
H 3021  1225                     -85.0650545 -493.55661   480%  72.0    8s
  3039  1227 -344.30490    9   35  -85.06505 -493.55661   480%  72.0   11s
  3043  1231 -228.03408   10   45  -85.06505 -493.55661   480%  72.5   15s
  3049  1238 -202.93963   16   35  -85.06505 -493.55661   480%  72.5   20s
  3055  1243 -124.34620   26   45  -85.06505 -493.55661   480%  72.5   26s
  4434  1226 -197.93874   54   19  -85.06505 -347.22132   308%  82.3   30s
  6421   494     cutoff   72       -85.06505 -162.54290  91.1%  83.0   35s
* 6900   350              73     -85.7734709 -144.96303  69.0%  79.6   35s
* 7896   273              73     -86.1619483 -117.27251  36.1%  72.9   35s
H 8344   266                     -86.1835588 -112.44741  30.5%  70.1   36s

Explored 9218 nodes (607365 simplex iterations) in 37.18 seconds (38.07 work units)
Thread count was 16 (of 16 available processors)

Solution count 9: -86.1836 -85.7735 -85.0651 ... -3.03735
No other solutions better than -86.1836

Optimal solution found (tolerance 1.00e-04)
Best objective -8.618355881891e+01, best bound -8.618355881891e+01, gap 0.0000%

Gurobi 11.0.1 (win64) logging started Wed Dec  4 15:35:59 2024

Set parameter LogFile to value "F_ReLU1_Adv3.log"
Gurobi Optimizer version 11.0.1 build v11.0.1rc0 (win64 - Windows 11.0 (22631.2))

CPU model: AMD Ryzen 7 4800H with Radeon Graphics, instruction set [SSE2|AVX|AVX2]
Thread count: 8 physical cores, 16 logical processors, using up to 16 threads

Optimize a model with 1768 rows, 944 columns and 17968 nonzeros
Model fingerprint: 0x0a9ed2ed
Model has 180 quadratic objective terms
Model has 81 quadratic constraints
Variable types: 884 continuous, 60 integer (60 binary)
Coefficient statistics:
  Matrix range     [5e-06, 2e+03]
  QMatrix range    [6e-05, 2e+00]
  QLMatrix range   [5e-03, 1e+00]
  Objective range  [2e-02, 9e-01]
  QObjective range [8e-03, 3e+00]
  Bounds range     [1e-02, 2e+03]
  RHS range        [5e-03, 2e+03]
Presolve removed 1567 rows and 31 columns
Presolve time: 0.03s
Presolved: 381 rows, 1093 columns, 18561 nonzeros
Variable types: 1044 continuous, 49 integer (49 binary)
Found heuristic solution: objective -3.0373500
Found heuristic solution: objective -9.9849172

Root relaxation: objective -1.077740e+03, 279 iterations, 0.02 seconds (0.02 work units)

    Nodes    |    Current Node    |     Objective Bounds      |     Work
 Expl Unexpl |  Obj  Depth IntInf | Incumbent    BestBd   Gap | It/Node Time

     0     0 -1077.7398    0   35   -9.98492 -1077.7398      -     -    0s
     0     2 -1075.7038    0   35   -9.98492 -1075.7038      -     -    0s
H  158   160                     -11.1579990 -826.23469  7305%  90.8    1s
*  296   320              29     -72.1624388 -826.23469  1045%  73.0    1s
H  453   420                     -72.1695310 -813.71719  1028%  87.0    2s
*  699   512              30     -80.4846594 -813.71719   911%  72.0    2s
  1952   965 -141.03664   15   22  -80.48466 -553.05998   587%  70.5    5s
* 1963   946              32     -83.5412437 -548.59219   557%  70.4    5s
H 2992  1225                     -84.8924680 -493.55661   481%  72.1    8s
H 3021  1225                     -85.0650545 -493.55661   480%  72.0    8s
  3039  1227 -344.30490    9   35  -85.06505 -493.55661   480%  72.0   12s
  3043  1231 -228.03408   10   45  -85.06505 -493.55661   480%  72.5   16s
  3047  1235 -446.91658   11   45  -85.06505 -493.55661   480%  72.5   20s
  3055  1243 -124.34620   26   45  -85.06505 -493.55661   480%  72.5   26s
  4113  1297 -226.82760   54   24  -85.06505 -404.22132   375%  81.0   30s
  5883   652 -102.23289   53   26  -85.06505 -205.24925   141%  84.1   35s
* 6900   350              73     -85.7734709 -144.96303  69.0%  79.6   35s
* 7896   273              73     -86.1619483 -117.27251  36.1%  72.9   36s
H 8344   266                     -86.1835588 -112.44741  30.5%  70.1   37s

Explored 9218 nodes (607365 simplex iterations) in 37.76 seconds (38.07 work units)
Thread count was 16 (of 16 available processors)

Solution count 9: -86.1836 -85.7735 -85.0651 ... -3.03735
No other solutions better than -86.1836

Optimal solution found (tolerance 1.00e-04)
Best objective -8.618355881891e+01, best bound -8.618355881891e+01, gap 0.0000%
